25639
157,291,393,554,599,629,675,905,907,960,984,1126,1165,1269,1299,1410,1530,1577,1721,1805,2062,2090,2372,2513,2714,2835,2977,3239,3295,3398,3468,3503,3522,3573,3638,3850,3964,4061,4116,4136,4160,4163,4171,4537,4563,4571,4581,4616,4766,4925,4983
